(declare-fun e () String)
(declare-fun c () String)
(declare-fun b () String)
(declare-fun d () String)
(declare-fun f () String)
(declare-fun a () String)
(declare-fun h () String)
(assert (= (str.++ "c" e c "c") "b"))
(assert (= (str.++ a "gde" b "b") (str.++ e "e" b)))
(assert (= (str.++ h c) (str.++ "ag" d f "e")))

(check-sat)
